&FORCE_EVAL
  &DFT
    WFN_RESTART_FILE_NAME .wfn
    &QS
      METHOD xTB
      &xTB
        DO_EWALD  T
        CHECK_ATOMIC_CHARGES  T
        COULOMB_INTERACTION T
        &PARAMETER
          DISPERSION_PARAMETER_FILE  dftd3.dat
          PARAM_FILE_NAME xTB_parameters
        &END PARAMETER
      &END
      &DISTRIBUTION
        BASIC_OPTIMIZATION .FALSE.
        BASIC_SPATIAL_OPTIMIZATION .TRUE.
      &END
    &END QS
    &POISSON
      POISSON_SOLVER PERIODIC !MT
      PERIODIC XYZ !NONE
    &END
    &MGRID
      CUTOFF 300
    &END
    &SCF
      SCF_GUESS RESTART !MOPAC
      EPS_SCF 1.e-6
      ADDED_MOS 100
!      &OUTER_SCF
!         MAX_SCF  30
!         EPS_SCF 1.e-6
!      &END
      MAX_SCF 50 
    &END SCF
    &PRINT
      &MO ON
        FILENAME si_qd
        EIGENVECTORS F
        EIGENVALUES F
        NDIGITS 8
      &END
      &PDOS 
        APPEND T
        COMPONENTS T
        FILENAME si_qd
      &END
      &MO_CUBES
        NHOMO 2
        NLUMO 2
        WRITE_CUBE T
        STRIDE 2 2 2
      &END
      &MO_MOLDEN ON
        FILENAME    
        NDIGITS 8
        GTO_KIND SPHERICAL
      &END 
    &END
  &END DFT
  &SUBSYS
    &CELL
      ABC 30.0 30.0 30.0
      PERIODIC XYZ
    &END CELL
    &TOPOLOGY
      COORD_FILE_NAME coord.xyz 
      COORD_FILE_FORMAT XYZ
      &CENTER_COORDINATES T
      &END
    &END
   &END SUBSYS
&END FORCE_EVAL
&GLOBAL
  PROJECT_NAME si_qd
  RUN_TYPE ENERGY
  PRINT_LEVEL LOW
&END GLOBAL

