&FORCE_EVAL
  &DFT
    WFN_RESTART_FILE_NAME Si_QD_xtb-RESTART.wfn
    &QS
      METHOD xTB
      &xTB
        DO_EWALD  T
        CHECK_ATOMIC_CHARGES  T
        COULOMB_INTERACTION T
        &PARAMETER
          DISPERSION_PARAMETER_FILE  dftd3.dat
          PARAM_FILE_NAME xTB_parameters
        &END PARAMETER
      &END
      &DISTRIBUTION
        BASIC_OPTIMIZATION .FALSE.
        BASIC_SPATIAL_OPTIMIZATION .TRUE.
      &END
    &END QS
    &MGRID
      CUTOFF 100
    &END
    &POISSON
      POISSON_SOLVER PERIODIC !MT
      PERIODIC XYZ !NONE
    &END
    &SCF
      SCF_GUESS RESTART !MOPAC
      EPS_SCF 1.e-6
      ADDED_MOS 300
!      &OUTER_SCF
!         MAX_SCF  30
!         EPS_SCF 1.e-6
!      &END
      MAX_SCF 50 
    &END SCF
    &PRINT
      &MO ON
        FILENAME si_qd_xTB
        EIGENVECTORS F
        EIGENVALUES F
        NDIGITS 8
      &END
      &MO_CUBES
        NLUMO 3
        NHOMO 3
        WRITE_CUBE .TRUE.
        STRIDE 2 2 2 
      &END
      &PDOS 
        APPEND T
        COMPONENTS T
        FILENAME si_qd
        &LDOS
          COMPONENTS T
          LIST 1  2  3  4  5  6  7  8  9  14  15  16  18  19  20  21  22  23  25  26  27  29  33  37  38  39  40  41  42  43  44  45  46  47  48  49  54  55  56  58  59  60  61  62  63  64  65  69  85  87  88  89  91  92  93  94  95  96  98  99  100  102  122  126  127  128  129  130  131  133  134  135  137  141  145  146  147  148  149  150  151  152  153  154  155  156  158  159  160  164  168  170  171  172  173  174  176  177  178  198  202  204  206  210  234  235  236  238  239  240  241  243  247  255  256  257  259  260  261  262  264  265  266  267  268  269  270  271  272  273  274  276  277  278  282  286  288  289  290  291  292  293  295  299  307  308  309  311  312  313  314  315  316  317  319  320  321  322  323  324  325  326  328  329  330  331  332  333  334  335  336  337  338  339  340  341  342  343  344  345  346  347  348  349  350  351  352  353  354  355  356  357  358  359  360  361  362  363  364  365  366  367  368  369  370  371  372  373  374  375  376  377  378  379  380  381  382  383  384  385  386  387  388  389  390  391  392  393  394  395  396  397  398  399  400  401  402  403  404  405  406  407  408  409  410  411  412  413  414  415  416  417  418  419  420  421  422  423  424  425  426  427  428  429  430  431  432  433  434  435  436  437  438  439  440  441  442  443  444  445  446  447  448  449  450  451  452  453  454  455  456  457  458  459  460  461  462  463  464  465  466  467  468  469  470  471  472  473  474  475  476  477  478  479  480  481  482  483  484  485  486  487  488  489  490  491  492  493  494  495  496  497  498  499  500  501
        &END
        &LDOS
          COMPONENTS T
          LIST 10  11  12  13  17  24  28  30  31  32  34  35  36  50  51  52  53  57  66  67  68  70  71  72  73  74  75  76  77  78  79  80  81  82  83  84  86  90  97  101  103  104  105  106  107  108  109  110  111  112  113  114  115  116  117  118  119  120  121  123  124  125  132  136  138  139  140  142  143  144  157  161  162  163  165  166  167  169  175  179  180  181  182  183  184  185  186  187  188  189  190  191  192  193  194  195  196  197  199  200  201  203  205  207  208  209  211  212  213  214  215  216  217  218  219  220  221  222  223  224  225  226  227  228  229  230  231  232  233  237  242  244  245  246  248  249  250  251  252  253  254  258  263  275  279  280  281  283  284  285  287  294  296  297  298  300  301  302  303  304  305  306  310  318  327
        &END
      &END
      &MO_MOLDEN ON
        FILENAME    
        NDIGITS 8
        GTO_KIND SPHERICAL
      &END 
    &END
  &END DFT
  &SUBSYS
    &CELL
      ABC 35.0 35.0 35.0
      PERIODIC XYZ
    &END CELL
    &TOPOLOGY
      COORD_FILE_NAME coord.xyz 
      COORD_FILE_FORMAT XYZ
      &CENTER_COORDINATES T
      &END
    &END
   &END SUBSYS
&END FORCE_EVAL
&GLOBAL
  PROJECT_NAME Si_QD_xtb
  RUN_TYPE ENERGY
  PRINT_LEVEL LOW
&END GLOBAL

