&FORCE_EVAL
  &DFT
    WFN_RESTART_FILE_NAME Si_QD_xtb-RESTART.wfn
    &QS
      METHOD xTB
      &xTB
        DO_EWALD  T
        CHECK_ATOMIC_CHARGES  T
        COULOMB_INTERACTION T
        &PARAMETER
          DISPERSION_PARAMETER_FILE  dftd3.dat
          PARAM_FILE_NAME xTB_parameters
        &END PARAMETER
      &END
      &DISTRIBUTION
        BASIC_OPTIMIZATION .FALSE.
        BASIC_SPATIAL_OPTIMIZATION .TRUE.
      &END
    &END QS
    &MGRID
      CUTOFF 100
    &END
    &POISSON
      POISSON_SOLVER PERIODIC !MT
      PERIODIC XYZ !NONE
    &END
    &SCF
      SCF_GUESS RESTART !MOPAC
      EPS_SCF 1.e-6
      ADDED_MOS 300
!      &OUTER_SCF
!         MAX_SCF  30
!         EPS_SCF 1.e-6
!      &END
      MAX_SCF 50 
    &END SCF
    &PRINT
      &MO ON
        FILENAME si_qd_xTB
        EIGENVECTORS F
        EIGENVALUES F
        NDIGITS 8
      &END
      &MO_CUBES
        NLUMO 3
        NHOMO 3
        WRITE_CUBE .TRUE.
        STRIDE 2 2 2 
      &END
      &PDOS 
        APPEND T
        COMPONENTS T
        FILENAME si_qd
        &LDOS
          COMPONENTS T
          LIST 1  2  3  4  5  6  8  9  10  13  14  15  16  17  19  20  23  27  28  29  30  31  32  33  34  35  37  38  39  41  43  44  45  46  47  51  63  65  66  69  70  71  72  73  74  76  77  78  96  100  101  102  103  104  105  106  108  110  112  116  117  118  119  120  121  122  123  124  126  128  133  134  135  136  137  138  140  141  158  163  164  165  169  170  171  177  194  195  197  198  202  203  204  210  212  214  215  216  218  219  220  221  222  223  224  225  226  229  230  235  236  237  241  242  243  249  250  253  254  255  257  258  259  260  261  262  264  265  266  267  268  269  270  271  272  273  274  275  276  277  278  279  280  281  282  283  284  285  286  287  288  289  290  291  292  293  294  295  296  297  298  299  300  301  302  303  304  305  306  307  308  309  310  311  312  313  314  315  316  317  318  319  320  321  322  323  324  325  326  327  328  329  330  331  332  333  334  335  336  337  338  339  340  341  342  343  344  345  346  347  348  349  350  351  352  353  354  355  356  357  358  359  360  361  362  363  364  365  366  367  368  369  370  371  372  373  374  375  376  377  378  379  380  381  382  383  384  385  386  387  388  389  390  391  392  393  394  395  396  397  398  399  400  401  402  403  404  405
        &END
        &LDOS
          COMPONENTS T
          LIST 7  11  12  18  21  22  24  25  26  36  40  42  48  49  50  52  53  54  55  56  57  58  59  60  61  62  64  67  68  75  79  80  81  82  83  84  85  86  87  88  89  90  91  92  93  94  95  97  98  99  107  109  111  113  114  115  125  127  129  130  131  132  139  142  143  144  145  146  147  148  149  150  151  152  153  154  155  156  157  159  160  161  162  166  167  168  172  173  174  175  176  178  179  180  181  182  183  184  185  186  187  188  189  190  191  192  193  196  199  200  201  205  206  207  208  209  211  213  217  227  228  231  232  233  234  238  239  240  244  245  246  247  248  251  252  256  263
        &END
      &END
      &MO_MOLDEN ON
        FILENAME    
        NDIGITS 8
        GTO_KIND SPHERICAL
      &END 
    &END
  &END DFT
  &SUBSYS
    &CELL
      ABC 35.0 35.0 35.0
      PERIODIC XYZ
    &END CELL
    &TOPOLOGY
      COORD_FILE_NAME coord.xyz 
      COORD_FILE_FORMAT XYZ
      &CENTER_COORDINATES T
      &END
    &END
   &END SUBSYS
&END FORCE_EVAL
&GLOBAL
  PROJECT_NAME Si_QD_xtb
  RUN_TYPE ENERGY
  PRINT_LEVEL LOW
&END GLOBAL

