&FORCE_EVAL
  &DFT
    WFN_RESTART_FILE_NAME c3n4_-RESTART.wfn
    &QS
      METHOD xTB
      &xTB
        DO_EWALD  T
        CHECK_ATOMIC_CHARGES  T
        COULOMB_INTERACTION T
        &PARAMETER
          DISPERSION_PARAMETER_FILE dftd3.dat
          PARAM_FILE_NAME xTB_parameters
        &END PARAMETER
      &END
      &DISTRIBUTION
        BASIC_OPTIMIZATION .FALSE.
        BASIC_SPATIAL_OPTIMIZATION .TRUE.
      &END
    &END QS
    &POISSON
      POISSON_SOLVER PERIODIC !MT
      PERIODIC XYZ !NONE
    &END
    &SCF
      SCF_GUESS ATOMIC !MOPAC
      EPS_SCF 5.e-8
      &OT
         PRECONDITIONER FULL_SINGLE_INVERSE
         MINIMIZER DIIS
      &END
!      &OUTER_SCF
!         MAX_SCF  30
!         EPS_SCF 1.e-8
!      &END
      MAX_SCF  400
    &END SCF
  &END DFT
  &SUBSYS
    &CELL
      A 19.041508512536730 0.0000000000000000 0.0000000000000000
      B 0.0000000000000000 19.031220615195195 0.0000000000000000
      C 0.0000000000000000 0.0000000000000000 18.144972135855262
      PERIODIC XYZ
    &END CELL
    &TOPOLOGY
      COORD_FILE_NAME coord.xyz 
      COORD_FILE_FORMAT XYZ
    &END
   &END SUBSYS
&END FORCE_EVAL
&GLOBAL
  PROJECT_NAME c3n4_6x6
  RUN_TYPE ENERGY
  PRINT_LEVEL LOW
&END GLOBAL
