&FORCE_EVAL
  &DFT
    WFN_RESTART_FILE_NAME c3n4_xtb-RESTART.wfn
    &QS
      METHOD xTB
      &xTB
        DO_EWALD  T
        CHECK_ATOMIC_CHARGES  T
        COULOMB_INTERACTION T
        &PARAMETER
          DISPERSION_PARAMETER_FILE dftd3.dat
          PARAM_FILE_NAME xTB_parameters
        &END PARAMETER
      &END
      &DISTRIBUTION
        BASIC_OPTIMIZATION .FALSE.
        BASIC_SPATIAL_OPTIMIZATION .TRUE.
      &END
    &END QS
    &POISSON
      POISSON_SOLVER PERIODIC !MT
      PERIODIC XYZ !NONE
    &END
    &SCF
      SCF_GUESS ATOMIC !MOPAC
      EPS_SCF 1.e-8
      &OT
         PRECONDITIONER FULL_SINGLE_INVERSE
         MINIMIZER DIIS
      &END
!      &OUTER_SCF
!         MAX_SCF  30
!         EPS_SCF 1.e-8
!      &END
      MAX_SCF  300
    &END SCF
  &END DFT
  &SUBSYS
    &CELL
      A        28.4830265045         0.0000000000         0.0000000000
      B         0.0004303118        24.6686019860         0.0000000000
      C         0.0018975023         0.0028002808        14.9999996186
      PERIODIC XYZ
    &END CELL
    &TOPOLOGY
      COORD_FILE_NAME C3N4_2x2.xyz 
      COORD_FILE_FORMAT XYZ
      &CENTER_COORDINATES T
      &END
    &END
   &END SUBSYS
&END FORCE_EVAL
&GLOBAL
  PROJECT_NAME C3N4_xtb
  RUN_TYPE GEO_OPT
  PRINT_LEVEL LOW
&END GLOBAL

&MOTION
 &GEO_OPT
   OPTIMIZER BFGS
   MAX_ITER  500
   MAX_DR    [bohr] 0.002
   MAX_FORCE 3.000E-4
   RMS_DR    [bohr] 0.002
   RMS_FORCE 3.000E-4
   &BFGS
   &END
 &END
  &PRINT
   &TRAJECTORY
     &EACH
       GEO_OPT 1
     &END EACH
   &END TRAJECTORY
   &FORCES ON
   &END FORCES
   &RESTART_HISTORY
     &EACH
       GEO_OPT 1
     &END EACH
   &END RESTART_HISTORY
   &RESTART
     BACKUP_COPIES 1
     &EACH
       GEO_OPT 1
     &END EACH
   &END RESTART
  &END PRINT
&END
&END
